253.0 420.0
252.9 420.04
252.8 420.09
252.7 420.13
252.6 420.18
252.5 420.22
252.4 420.26
252.3 420.31
252.2 420.35
252.1 420.39
252.0 420.44
251.9 420.48
251.8 420.52
251.7 420.57
251.6 420.61
251.5 420.66
251.4 420.7
251.3 420.74
251.2 420.79
251.1 420.83
251.0 420.87
250.9 420.92
250.8 420.96
250.7 421.01
250.6 421.05
250.5 421.09
250.4 421.14
250.3 421.18
250.2 421.22
250.1 421.27
250.0 421.31
249.9 421.36
249.8 421.4
249.7 421.44
249.6 421.49
249.5 421.53
249.4 421.57
249.3 421.62
249.2 421.66
249.1 421.71
249.0 421.75
248.9 421.79
248.8 421.84
248.7 421.88
248.6 421.92
248.5 421.97
248.4 422.01
248.3 422.06
248.2 422.1
248.1 422.14
248.0 422.19
247.9 422.23
247.8 422.28
247.7 422.32
247.6 422.36
247.5 422.41
247.4 422.45
247.3 422.49
247.2 422.54
247.1 422.58
247.0 422.63
246.9 422.67
246.8 422.71
246.7 422.76
246.6 422.8
246.5 422.84
246.4 422.89
246.3 422.93
246.2 422.98
246.1 423.02
246.0 423.06
245.9 423.11
245.8 423.15
245.7 423.19
245.6 423.24
245.5 423.28
245.4 423.33
245.3 423.37
245.2 423.41
245.1 423.46
245.0 423.5
244.9 423.54
244.8 423.59
244.7 423.63
244.6 423.68
244.5 423.72
244.4 423.76
244.3 423.81
244.2 423.85
244.1 423.89
244.0 423.94
243.9 423.98
243.8 424.03
243.7 424.07
243.6 424.11
243.5 424.16
243.4 424.2
243.3 424.24
243.2 424.29
243.1 424.33
243.0 424.37
242.9 424.42
242.8 424.46
242.7 424.51
242.6 424.55
242.5 424.59
242.4 424.64
242.3 424.68
242.2 424.72
242.1 424.77
242.0 424.81
241.9 424.86
241.8 424.9
241.7 424.94
241.6 424.99
241.5 425.03
241.4 425.07
241.3 425.12
241.2 425.16
241.1 425.21
241.0 425.25
240.9 425.29
240.8 425.34
240.7 425.38
240.6 425.42
240.5 425.47
240.4 425.51
240.3 425.56
240.2 425.6
240.1 425.64
240.0 425.69
239.9 425.73
239.8 425.77
239.7 425.82
239.6 425.86
239.5 425.91
239.4 425.95
239.3 425.99
239.2 426.04
239.1 426.08
239.0 426.12
238.9 426.17
238.8 426.21
238.7 426.26
238.6 426.3
238.5 426.34
238.4 426.39
238.3 426.43
238.2 426.47
238.1 426.52
238.0 426.56
237.9 426.61
237.8 426.65
237.7 426.69
237.6 426.74
237.5 426.78
237.4 426.83
237.3 426.87
237.2 426.91
237.1 426.96
237.0 427.0
236.9 427.04
236.8 427.09
236.7 427.13
236.6 427.18
236.5 427.22
236.4 427.26
236.3 427.31
236.2 427.35
236.1 427.39
236.0 427.44
235.9 427.48
235.8 427.53
235.7 427.57
235.6 427.61
235.5 427.66
235.4 427.7
235.3 427.74
235.2 427.79
235.1 427.83
235.0 427.88
234.9 427.92
234.8 427.96
234.7 428.01
234.6 428.05
234.5 428.09
234.4 428.14
234.3 428.18
234.2 428.23
234.1 428.27
234.0 428.31
233.9 428.36
233.8 428.4
233.7 428.44
233.6 428.49
233.5 428.53
233.4 428.58
233.3 428.62
233.2 428.66
233.1 428.71
233.0 428.75
232.9 428.79
232.8 428.84
232.7 428.88
232.6 428.93
232.5 428.97
232.4 429.01
232.3 429.06
232.2 429.1
232.1 429.14
232.0 429.19
231.9 429.23
231.8 429.27
231.7 429.32
231.6 429.36
231.5 429.41
231.4 429.45
231.3 429.49
231.2 429.54
231.1 429.58
231.0 429.62
230.9 429.67
230.8 429.71
230.7 429.76
230.6 429.8
230.5 429.84
230.4 429.89
230.3 429.93
230.2 429.97
230.1 430.02
230.0 430.06
229.9 430.11
229.8 430.15
229.7 430.19
229.6 430.24
229.5 430.28
229.4 430.32
229.3 430.37
229.2 430.41
229.1 430.46
229.0 430.5
228.9 430.54
228.8 430.59
228.7 430.63
228.6 430.67
228.5 430.72
228.4 430.76
228.3 430.81
228.2 430.85
228.1 430.89
228.0 430.94
227.9 430.98
227.8 431.02
227.7 431.07
227.6 431.11
227.5 431.16
227.4 431.2
227.3 431.24
227.2 431.29
227.1 431.33
227.0 431.38
226.9 431.42
226.8 431.46
226.7 431.51
226.6 431.55
226.5 431.59
226.4 431.64
226.3 431.68
226.2 431.73
226.1 431.77
226.0 431.81
225.9 431.86
225.8 431.9
225.7 431.94
225.6 431.99
225.5 432.03
225.4 432.08
225.3 432.12
225.2 432.16
225.1 432.21
225.0 432.25
224.9 432.29
224.8 432.34
224.7 432.38
224.6 432.43
224.5 432.47
224.4 432.51
224.3 432.56
224.2 432.6
224.1 432.64
224.0 432.69
223.9 432.73
223.8 432.78
223.7 432.82
223.6 432.86
223.5 432.91
223.4 432.95
223.3 432.99
223.2 433.04
223.1 433.08
223.0 433.13
222.9 433.17
222.8 433.21
222.7 433.26
222.6 433.3
222.5 433.34
222.4 433.39
222.3 433.43
222.2 433.48
222.1 433.52
222.0 433.56
221.9 433.61
221.8 433.65
221.7 433.69
221.6 433.74
221.5 433.78
221.4 433.82
221.3 433.87
221.2 433.91
221.1 433.96
221.0 434.0
220.9 434.04
220.8 434.09
220.7 434.13
220.6 434.17
220.5 434.22
220.4 434.26
220.3 434.31
220.2 434.35
220.1 434.39
220.0 434.44
219.9 434.48
219.8 434.52
219.7 434.57
219.6 434.61
219.5 434.66
219.4 434.7
219.3 434.74
219.2 434.79
219.1 434.83
219.0 434.87
218.9 434.92
218.8 434.96
218.7 435.01
218.6 435.05
218.5 435.09
218.4 435.14
218.3 435.18
218.2 435.22
218.1 435.27
218.0 435.31
217.9 435.36
217.8 435.4
217.7 435.44
217.6 435.49
217.5 435.53
217.4 435.57
217.3 435.62
217.2 435.66
217.1 435.71
217.0 435.75
216.9 435.79
216.8 435.84
216.7 435.88
216.6 435.92
216.5 435.97
216.4 436.01
216.3 436.06
216.2 436.1
216.1 436.14
216.0 436.19
215.9 436.23
215.8 436.28
215.7 436.32
215.6 436.36
215.5 436.41
215.4 436.45
215.3 436.49
215.2 436.54
215.1 436.58
215.0 436.63
214.9 436.67
214.8 436.71
214.7 436.76
214.6 436.8
214.5 436.84
214.4 436.89
214.3 436.93
214.2 436.98
214.1 437.02
214.0 437.06
213.9 437.11
213.8 437.15
213.7 437.19
213.6 437.24
213.5 437.28
213.4 437.33
213.3 437.37
213.2 437.41
213.1 437.46
213.0 437.5
212.9 437.54
212.8 437.59
212.7 437.63
212.6 437.68
212.5 437.72
212.4 437.76
212.3 437.81
212.2 437.85
212.1 437.89
212.0 437.94
211.9 437.98
211.8 438.03
211.7 438.07
211.6 438.11
211.5 438.16
211.4 438.2
211.3 438.24
211.2 438.29
211.1 438.33
211.0 438.37
210.9 438.42
210.8 438.46
210.7 438.51
210.6 438.55
210.5 438.59
210.4 438.64
210.3 438.68
210.2 438.72
210.1 438.77
210.0 438.81
209.9 438.86
209.8 438.9
209.7 438.94
209.6 438.99
209.5 439.03
209.4 439.07
209.3 439.12
209.2 439.16
209.1 439.21
209.0 439.25
208.9 439.29
208.8 439.34
208.7 439.38
208.6 439.42
208.5 439.47
208.4 439.51
208.3 439.55
208.2 439.6
208.1 439.64
208.0 439.69
207.9 439.73
207.8 439.77
207.7 439.82
207.6 439.86
207.5 439.9
207.4 439.95
207.3 439.99
207.2 440.04
207.1 440.08
207.0 440.12
206.9 440.17
206.8 440.21
206.7 440.26
206.6 440.3
206.5 440.34
206.4 440.39
206.3 440.43
206.2 440.47
206.1 440.52
206.0 440.56
205.9 440.61
205.8 440.65
205.7 440.69
205.6 440.74
205.5 440.78
205.4 440.83
205.3 440.87
205.2 440.91
205.1 440.96
205.0 441.0
204.9 441.05
204.8 441.09
204.7 441.13
204.6 441.18
204.5 441.22
204.4 441.27
204.3 441.31
204.2 441.35
204.1 441.4
204.0 441.44
203.9 441.49
203.8 441.53
203.7 441.57
203.6 441.62
203.5 441.66
203.4 441.71
203.3 441.75
203.2 441.79
203.1 441.84
203.0 441.88
202.9 441.93
202.8 441.97
202.7 442.01
202.6 442.06
202.5 442.1
202.4 442.15
202.3 442.19
202.2 442.23
202.1 442.28
202.0 442.32
201.9 442.36
201.8 442.41
201.7 442.45
201.6 442.5
201.5 442.54
201.4 442.58
201.3 442.63
201.2 442.67
201.1 442.71
201.0 442.75
200.9 442.8
200.8 442.84
200.7 442.88
200.6 442.93
200.5 442.97
200.4 443.01
200.3 443.05
200.2 443.1
200.1 443.14
200.0 443.18
199.9 443.22
199.8 443.27
199.7 443.31
199.6 443.35
199.5 443.39
199.4 443.43
199.3 443.48
199.2 443.52
199.1 443.56
199.0 443.6
198.9 443.64
198.8 443.68
198.7 443.73
198.6 443.77
198.5 443.81
198.4 443.85
198.3 443.89
198.2 443.94
198.1 443.98
198.0 444.02
197.9 444.06
197.8 444.1
197.7 444.15
197.6 444.19
197.5 444.23
197.4 444.27
197.3 444.32
197.2 444.36
197.1 444.4
197.0 444.44
196.9 444.49
196.8 444.53
196.7 444.58
196.6 444.62
196.5 444.67
196.4 444.71
196.3 444.76
196.2 444.8
196.1 444.85
196.0 444.89
195.9 444.94
195.8 444.99
195.7 445.03
195.6 445.08
195.5 445.13
195.4 445.18
195.3 445.23
195.2 445.28
195.1 445.33
195.0 445.38
194.9 445.43
194.8 445.48
194.7 445.53
194.6 445.58
194.5 445.64
194.4 445.69
194.3 445.74
194.2 445.8
194.1 445.85
194.0 445.9
193.9 445.96
193.8 446.01
193.7 446.07
193.6 446.12
193.5 446.18
193.4 446.23
193.3 446.28
193.2 446.34
193.1 446.39
193.0 446.45
192.9 446.5
192.8 446.55
192.7 446.61
192.6 446.66
192.5 446.71
192.4 446.76
192.3 446.81
192.2 446.86
192.1 446.9
192.0 446.95
191.9 446.99
191.8 447.04
191.7 447.08
191.6 447.12
191.5 447.15
191.4 447.19
191.3 447.22
191.2 447.25
191.1 447.28
191.0 447.31
190.9 447.33
190.8 447.35
190.7 447.37
190.6 447.39
190.5 447.4
190.4 447.41
190.3 447.41
190.2 447.42
190.1 447.41
190.0 447.41
189.9 447.4
189.8 447.38
189.7 447.37
189.6 447.35
189.5 447.32
189.4 447.29
189.3 447.26
189.2 447.22
189.1 447.18
189.0 447.13
188.9 447.08
188.8 447.03
188.7 446.97
188.6 446.9
188.5 446.84
188.4 446.76
188.3 446.69
188.2 446.61
188.1 446.52
188.0 446.44
187.9 446.34
187.8 446.25
187.7 446.15
187.6 446.05
187.5 445.94
187.4 445.83
187.3 445.72
187.2 445.61
187.1 445.49
187.0 445.37
186.9 445.24
186.8 445.12
186.7 444.99
186.6 444.86
186.5 444.73
186.4 444.59
186.3 444.45
186.2 444.32
186.1 444.18
186.0 444.03
185.9 443.89
185.8 443.75
185.7 443.6
185.6 443.46
185.5 443.31
185.4 443.16
185.3 443.01
185.2 442.86
185.1 442.71
185.0 442.56
184.9 442.41
184.8 442.26
184.7 442.11
184.6 441.96
184.5 441.8
184.4 441.65
184.3 441.5
184.2 441.35
184.1 441.2
184.0 441.05
183.9 440.9
183.8 440.74
183.7 440.59
183.6 440.44
183.5 440.29
183.4 440.14
183.3 439.99
183.2 439.85
183.1 439.7
183.0 439.55
182.9 439.4
182.8 439.25
182.7 439.11
182.6 438.96
182.5 438.81
182.4 438.67
182.3 438.52
182.2 438.38
182.1 438.24
182.0 438.09
181.9 437.95
181.8 437.8
181.7 437.66
181.6 437.52
181.5 437.38
181.4 437.24
181.3 437.09
181.2 436.95
181.1 436.81
181.0 436.67
180.9 436.53
180.8 436.39
180.7 436.25
180.6 436.11
180.5 435.97
180.4 435.83
180.3 435.69
180.2 435.55
180.1 435.41
180.0 435.27
179.9 435.13
179.8 434.99
179.7 434.86
179.6 434.72
179.5 434.58
179.4 434.44
179.3 434.3
179.2 434.16
179.1 434.02
179.0 433.88
178.9 433.75
178.8 433.61
178.7 433.47
178.6 433.33
178.5 433.19
178.4 433.05
178.3 432.91
178.2 432.77
178.1 432.63
178.0 432.49
177.9 432.36
177.8 432.22
177.7 432.08
177.6 431.94
177.5 431.8
177.4 431.66
177.3 431.52
177.2 431.38
177.1 431.24
177.0 431.1
176.9 430.96
176.8 430.82
176.7 430.68
176.6 430.54
176.5 430.4
176.4 430.26
176.3 430.12
176.2 429.98
176.1 429.84
176.0 429.7
175.9 429.56
175.8 429.42
175.7 429.28
175.6 429.14
175.5 429.0
175.4 428.86
175.3 428.71
175.2 428.57
175.1 428.43
175.0 428.29
174.9 428.15
174.8 428.01
174.7 427.87
174.6 427.73
174.5 427.59
174.4 427.44
174.3 427.3
174.2 427.16
174.1 427.02
174.0 426.88
173.9 426.74
173.8 426.59
173.7 426.45
173.6 426.31
173.5 426.17
173.4 426.03
173.3 425.88
173.2 425.74
173.1 425.6
173.0 425.46
172.9 425.31
172.8 425.17
172.7 425.03
172.6 424.88
172.5 424.74
172.4 424.6
172.3 424.46
172.2 424.31
172.1 424.17
172.0 424.03
171.9 423.88
171.8 423.74
171.7 423.6
171.6 423.45
171.5 423.31
171.4 423.17
171.3 423.03
171.2 422.88
171.1 422.74
171.0 422.6
170.9 422.45
170.8 422.31
170.7 422.17
170.6 422.03
170.5 421.88
170.4 421.74
170.3 421.6
170.2 421.46
170.1 421.32
170.0 421.17
169.9 421.03
169.8 420.89
169.7 420.75
169.6 420.61
169.5 420.47
169.4 420.33
169.3 420.19
169.2 420.06
169.1 419.92
169.0 419.78
168.9 419.64
168.8 419.51
168.7 419.37
168.6 419.24
168.5 419.1
168.4 418.97
168.3 418.83
168.2 418.7
168.1 418.57
168.0 418.44
167.9 418.31
167.8 418.18
167.7 418.05
167.6 417.92
167.5 417.8
167.4 417.67
167.3 417.54
167.2 417.42
167.1 417.29
167.0 417.17
166.9 417.05
166.8 416.93
166.7 416.81
166.6 416.69
166.5 416.57
166.4 416.45
166.3 416.33
166.2 416.22
166.1 416.1
166.0 415.99
165.9 415.87
165.8 415.76
165.7 415.65
165.6 415.54
165.5 415.42
165.4 415.31
165.3 415.2
165.2 415.09
165.1 414.98
165.0 414.88
164.9 414.77
164.8 414.66
164.7 414.55
164.6 414.45
164.5 414.34
164.4 414.24
164.3 414.13
164.2 414.03
164.1 413.92
164.0 413.82
163.9 413.71
163.8 413.61
163.7 413.51
163.6 413.4
163.5 413.3
163.4 413.2
163.3 413.09
163.2 412.99
163.1 412.89
163.0 412.79
162.9 412.68
162.8 412.58
162.7 412.48
162.6 412.38
162.5 412.28
162.4 412.17
162.3 412.07
162.2 411.97
162.1 411.87
162.0 411.76
161.9 411.66
161.8 411.56
161.7 411.46
161.6 411.35
161.5 411.25
161.4 411.15
161.3 411.05
161.2 410.94
161.1 410.84
161.0 410.74
160.9 410.64
160.8 410.53
160.7 410.43
160.6 410.33
160.5 410.22
160.4 410.12
160.3 410.02
160.2 409.91
160.1 409.81
160.0 409.7
159.9 409.6
159.8 409.5
159.7 409.39
159.6 409.29
159.5 409.19
159.4 409.08
159.3 408.98
159.2 408.87
159.1 408.77
159.0 408.66
158.9 408.56
158.8 408.46
158.7 408.35
158.6 408.25
158.5 408.14
158.4 408.04
158.3 407.93
158.2 407.83
158.1 407.72
158.0 407.62
157.9 407.51
157.8 407.41
157.7 407.3
157.6 407.2
157.5 407.1
157.4 406.99
157.3 406.89
157.2 406.78
157.1 406.68
157.0 406.57
156.9 406.47
156.8 406.36
156.7 406.26
156.6 406.15
156.5 406.05
156.4 405.94
156.3 405.84
156.2 405.73
156.1 405.63
156.0 405.52
155.9 405.42
155.8 405.31
155.7 405.21
155.6 405.1
155.5 405.0
155.4 404.9
155.3 404.79
155.2 404.69
155.1 404.58
155.0 404.48
154.9 404.37
154.8 404.27
154.7 404.16
154.6 404.06
154.5 403.95
154.4 403.85
154.3 403.74
154.2 403.64
154.1 403.53
154.0 403.43
153.9 403.32
153.8 403.22
153.7 403.11
153.6 403.01
153.5 402.91
153.4 402.8
153.3 402.7
153.2 402.59
153.1 402.49
153.0 402.38
152.9 402.28
152.8 402.17
152.7 402.07
152.6 401.96
152.5 401.86
152.4 401.75
152.3 401.65
152.2 401.55
152.1 401.44
152.0 401.34
151.9 401.23
151.8 401.13
151.7 401.02
151.6 400.92
151.5 400.82
151.4 400.71
151.3 400.61
151.2 400.5
151.1 400.4
151.0 400.3
150.9 400.19
150.8 400.09
150.7 399.99
150.6 399.88
150.5 399.78
150.4 399.67
150.3 399.57
150.2 399.47
150.1 399.36
150.0 399.26
149.9 399.16
149.8 399.06
149.7 398.95
149.6 398.85
149.5 398.75
149.4 398.64
149.3 398.54
149.2 398.44
149.1 398.34
149.0 398.23
148.9 398.13
148.8 398.03
148.7 397.93
148.6 397.82
148.5 397.72
148.4 397.62
148.3 397.52
148.2 397.41
148.1 397.31
148.0 397.21
147.9 397.11
147.8 397.0
147.7 396.9
147.6 396.8
147.5 396.69
147.4 396.59
147.3 396.49
147.2 396.38
147.1 396.28
147.0 396.18
146.9 396.07
146.8 395.97
146.7 395.86
146.6 395.76
146.5 395.65
146.4 395.55
146.3 395.44
146.2 395.33
146.1 395.23
146.0 395.12
145.9 395.01
145.8 394.9
145.7 394.79
145.6 394.68
145.5 394.58
145.4 394.46
145.3 394.35
145.2 394.24
145.1 394.13
145.0 394.02
144.9 393.9
144.8 393.79
144.7 393.67
144.6 393.56
144.5 393.44
144.4 393.32
144.3 393.21
144.2 393.09
144.1 392.97
144.0 392.85
143.9 392.73
143.8 392.61
143.7 392.48
143.6 392.36
143.5 392.24
143.4 392.11
143.3 391.99
143.2 391.86
143.1 391.74
143.0 391.61
142.9 391.48
142.8 391.35
142.7 391.22
142.6 391.09
142.5 390.96
142.4 390.83
142.3 390.7
142.2 390.57
142.1 390.44
142.0 390.3
141.9 390.17
141.8 390.04
141.7 389.9
141.6 389.77
141.5 389.63
141.4 389.5
141.3 389.36
141.2 389.23
141.1 389.09
141.0 388.95
140.9 388.82
140.8 388.68
140.7 388.54
140.6 388.41
140.5 388.27
140.4 388.13
140.3 387.99
140.2 387.86
140.1 387.72
140.0 387.58
139.9 387.44
139.8 387.3
139.7 387.16
139.6 387.03
139.5 386.89
139.4 386.75
139.3 386.61
139.2 386.47
139.1 386.34
139.0 386.2
138.9 386.06
138.8 385.92
138.7 385.78
138.6 385.65
138.5 385.51
138.4 385.37
138.3 385.23
138.2 385.09
138.1 384.96
138.0 384.82
137.9 384.68
137.8 384.54
137.7 384.41
137.6 384.27
137.5 384.13
137.4 384.0
137.3 383.86
137.2 383.72
137.1 383.59
137.0 383.45
136.9 383.31
136.8 383.17
136.7 383.04
136.6 382.9
136.5 382.77
136.4 382.63
136.3 382.49
136.2 382.36
136.1 382.22
136.0 382.08
135.9 381.95
135.8 381.81
135.7 381.67
135.6 381.54
135.5 381.4
135.4 381.27
135.3 381.13
135.2 380.99
135.1 380.86
135.0 380.72
134.9 380.59
134.8 380.45
134.7 380.31
134.6 380.18
134.5 380.04
134.4 379.91
134.3 379.77
134.2 379.63
134.1 379.5
134.0 379.36
133.9 379.22
133.8 379.09
133.7 378.95
133.6 378.82
133.5 378.68
133.4 378.54
133.3 378.41
133.2 378.27
133.1 378.13
133.0 378.0
132.9 377.86
132.8 377.72
132.7 377.59
132.6 377.45
132.5 377.31
132.4 377.18
132.3 377.04
132.2 376.9
132.1 376.77
132.0 376.63
131.9 376.49
131.8 376.36
131.7 376.22
131.6 376.08
131.5 375.95
131.4 375.81
131.3 375.67
131.2 375.54
131.1 375.4
131.0 375.26
130.9 375.12
130.8 374.99
130.7 374.85
130.6 374.71
130.5 374.58
130.4 374.44
130.3 374.3
130.2 374.17
130.1 374.03
130.0 373.89
129.9 373.76
129.8 373.62
129.7 373.48
129.6 373.35
129.5 373.21
129.4 373.08
129.3 372.94
129.2 372.8
129.1 372.67
129.0 372.53
128.9 372.4
128.8 372.26
128.7 372.13
128.6 371.99
128.5 371.86
128.4 371.72
128.3 371.59
128.2 371.45
128.1 371.32
128.0 371.18
127.9 371.05
127.8 370.91
127.7 370.78
127.6 370.65
127.5 370.51
127.4 370.38
127.3 370.24
127.2 370.11
127.1 369.98
127.0 369.84
126.9 369.71
126.8 369.58
126.7 369.44
126.6 369.31
126.5 369.18
126.4 369.04
126.3 368.91
126.2 368.78
126.1 368.64
126.0 368.51
125.9 368.38
125.8 368.24
125.7 368.11
125.6 367.98
125.5 367.84
125.4 367.71
125.3 367.57
125.2 367.44
125.1 367.3
125.0 367.17
124.9 367.03
124.8 366.9
124.7 366.76
124.6 366.62
124.5 366.48
124.4 366.35
124.3 366.21
124.2 366.07
124.1 365.93
124.0 365.79
123.9 365.64
123.8 365.5
123.7 365.36
123.6 365.21
123.5 365.07
123.4 364.92
123.3 364.78
123.2 364.63
123.1 364.48
123.0 364.33
122.9 364.18
122.8 364.02
122.7 363.87
122.6 363.72
122.5 363.56
122.4 363.4
122.3 363.24
122.2 363.08
122.1 362.92
122.0 362.76
121.9 362.6
121.8 362.43
121.7 362.27
121.6 362.1
121.5 361.93
121.4 361.76
121.3 361.59
121.2 361.42
121.1 361.24
121.0 361.07
120.9 360.89
120.8 360.72
120.7 360.54
120.6 360.36
120.5 360.18
120.4 360.0
120.3 359.81
120.2 359.63
120.1 359.45
120.0 359.26
119.9 359.08
119.8 358.89
119.7 358.7
119.6 358.52
119.5 358.33
119.4 358.14
119.3 357.95
119.2 357.76
119.1 357.57
119.0 357.38
118.9 357.19
118.8 356.99
118.7 356.8
118.6 356.61
118.5 356.42
118.4 356.23
118.3 356.03
118.2 355.84
118.1 355.65
118.0 355.45
117.9 355.26
117.8 355.07
117.7 354.88
117.6 354.68
117.5 354.49
117.4 354.3
117.3 354.11
117.2 353.91
117.1 353.72
117.0 353.53
116.9 353.34
116.8 353.15
116.7 352.96
116.6 352.77
116.5 352.58
116.4 352.39
116.3 352.2
116.2 352.02
116.1 351.83
116.0 351.64
115.9 351.46
115.8 351.27
115.7 351.09
115.6 350.9
115.5 350.72
115.4 350.53
115.3 350.35
115.2 350.17
115.1 349.99
115.0 349.8
114.9 349.62
114.8 349.44
114.7 349.26
114.6 349.08
114.5 348.91
114.4 348.73
114.3 348.55
114.2 348.37
114.1 348.19
114.0 348.02
113.9 347.84
113.8 347.66
113.7 347.48
113.6 347.31
113.5 347.13
113.4 346.95
113.3 346.77
113.2 346.6
113.1 346.42
113.0 346.24
112.9 346.06
112.8 345.88
112.7 345.7
112.6 345.52
112.5 345.34
112.4 345.15
112.3 344.97
112.2 344.78
112.1 344.6
112.0 344.41
111.9 344.22
111.8 344.03
111.7 343.83
111.6 343.64
111.5 343.44
111.4 343.24
111.3 343.04
111.2 342.84
111.1 342.63
111.0 342.43
110.9 342.21
110.8 342.0
110.7 341.79
110.6 341.57
110.5 341.35
110.4 341.12
110.3 340.9
110.2 340.67
110.1 340.43
110.0 340.2
109.9 339.96
109.8 339.72
109.7 339.47
109.6 339.23
109.5 338.98
109.4 338.72
109.3 338.47
109.2 338.21
109.1 337.95
109.0 337.69
108.9 337.43
108.8 337.16
108.7 336.9
108.6 336.63
108.5 336.36
108.4 336.09
108.3 335.82
108.2 335.55
108.1 335.28
108.0 335.01
107.9 334.74
107.8 334.47
107.7 334.2
107.6 333.94
107.5 333.67
107.4 333.42
107.3 333.16
107.2 332.91
107.1 332.66
107.0 332.42
106.9 332.18
106.8 331.95
106.7 331.72
106.6 331.5
106.5 331.29
106.4 331.09
106.3 330.89
106.2 330.7
106.1 330.53
106.0 330.36
105.9 330.2
105.8 330.05
105.7 329.91
105.6 329.78
105.5 329.66
105.4 329.55
105.3 329.45
105.2 329.37
105.1 329.29
105.0 329.22
104.9 329.17
104.8 329.12
104.7 329.08
104.6 329.05
104.5 329.03
104.4 329.02
104.3 329.01
104.2 329.0
104.1 329.0
104.0 329.0
